p cnf 33 82
a 18 13 0
e 1 2 3 4 5 6 7 8 9 10 11 12 14 15 16 17 19 20 21 22 23 24 25 26 27 28 29 30 31 32 33 0
-3 1 0
-3 -2 0
-1 2 3 0
-5 -4 0
-5 -2 0
4 2 5 0
6 -1 -7 0
-6 1 -7 0
6 1 7 0
-6 -1 7 0
8 -7 0
8 -7 0
7 -8 0
5 8 -9 0
-5 -8 -9 0
5 -8 9 0
-5 8 9 0
-12 -11 0
-12 -7 0
11 7 12 0
-10 12 -13 0
10 -12 -13 0
-10 -12 13 0
10 12 13 0
14 -9 0
14 -13 0
9 13 -14 0
-15 -3 0
-15 -14 0
3 14 15 0
-17 -16 0
-17 -2 0
16 2 17 0
-19 -18 0
-19 2 0
18 -2 19 0
-20 -17 0
-20 -19 0
17 19 20 0
21 -15 0
21 20 0
15 -20 -21 0
22 23 0
-22 23 0
-10 -24 -25 0
10 24 -25 0
-10 24 25 0
10 -24 25 0
-23 25 -26 0
23 -25 -26 0
-23 -25 26 0
23 25 26 0
-27 -11 0
-27 11 0
28 -16 0
28 24 0
16 -24 -28 0
-29 10 0
-29 7 0
-10 -7 29 0
28 -29 -30 0
-28 29 -30 0
28 29 30 0
-28 -29 30 0
-27 -30 -31 0
27 30 -31 0
-27 30 31 0
27 -30 31 0
-32 26 0
-32 -31 0
-26 31 32 0
33 -21 0
33 -32 0
21 32 -33 0
33 22 -24 0
-2 -28 -11 20 -5 0
30 22 5 0
1 -31 7 -12 18 26 11 22 0
-30 -18 -7 15 0
28 19 26 0
31 30 -17 0
33 0
